NAME: rand_0/map1_180
TYPE: TSP
COMMENT: autogenerated using a wonderful map creator
DIMENSION: 210
EDGE_WEIGHT_TYPE: EUC_2D
NODE_COORD_SECTION
1 85.0 11.0
2 126.0 69.0
3 9.0 32.0
4 85.0 2.0
5 48.0 123.0
6 82.0 10.0
7 98.0 8.0
8 124.0 77.0
9 69.0 10.0
10 70.0 11.0
11 93.0 9.0
12 50.0 126.0
13 32.0 125.0
14 73.0 4.0
15 79.0 2.0
16 96.0 2.0
17 120.0 74.0
18 50.0 124.0
19 80.0 14.0
20 10.0 30.0
21 45.0 126.0
22 87.0 17.0
23 8.0 36.0
24 94.0 2.0
25 88.0 1.0
26 123.0 69.0
27 125.0 81.0
28 70.0 4.0
29 1.0 31.0
30 86.0 15.0
31 124.0 67.0
32 33.0 122.0
33 78.0 22.0
34 7.0 32.0
35 124.0 68.0
36 6.0 30.0
37 7.0 33.0
38 79.0 15.0
39 92.0 2.0
40 88.0 2.0
41 31.0 124.0
42 69.0 12.0
43 123.0 81.0
44 82.0 5.0
45 122.0 81.0
46 35.0 121.0
47 79.0 14.0
48 39.0 121.0
49 97.0 5.0
50 30.0 123.0
51 126.0 75.0
52 67.0 6.0
53 80.0 9.0
54 25.0 127.0
55 2.0 32.0
56 35.0 123.0
57 5.0 40.0
58 123.0 74.0
59 80.0 6.0
60 2.0 34.0
61 38.0 23.0
62 56.0 1.0
63 113.0 44.0
64 118.0 58.0
65 73.0 90.0
66 127.0 61.0
67 63.0 34.0
68 93.0 22.0
69 16.0 120.0
70 122.0 122.0
71 111.0 101.0
72 94.0 30.0
73 83.0 103.0
74 40.0 13.0
75 21.0 64.0
76 32.0 30.0
77 7.0 74.0
78 34.0 12.0
79 25.0 52.0
80 102.0 18.0
81 57.0 105.0
82 97.0 31.0
83 48.0 111.0
84 65.0 127.0
85 54.0 42.0
86 37.0 90.0
87 111.0 39.0
88 106.0 107.0
89 48.0 56.0
90 52.0 81.0
91 26.0 7.0
92 35.0 74.0
93 4.0 50.0
94 73.0 21.0
95 39.0 19.0
96 19.0 50.0
97 65.0 102.0
98 11.0 46.0
99 39.0 92.0
100 89.0 29.0
101 123.0 116.0
102 95.0 45.0
103 31.0 106.0
104 118.0 19.0
105 104.0 121.0
106 5.0 96.0
107 89.0 47.0
108 24.0 12.0
109 87.0 114.0
110 21.0 68.0
111 91.0 114.0
112 36.0 4.0
113 56.0 16.0
114 29.0 29.0
115 46.0 45.0
116 85.0 125.0
117 82.0 108.0
118 111.0 89.0
119 9.0 78.0
120 80.0 92.0
121 67.0 49.0
122 59.0 109.0
123 68.0 47.0
124 86.0 83.0
125 76.0 60.0
126 13.0 53.0
127 59.0 29.0
128 7.0 9.0
129 48.0 10.0
130 25.0 24.0
131 48.0 74.0
132 62.0 73.0
133 56.0 2.0
134 65.0 99.0
135 76.0 99.0
136 62.0 82.0
137 25.0 97.0
138 10.0 108.0
139 63.0 35.0
140 3.0 78.0
141 33.0 67.0
142 35.0 9.0
143 86.0 112.0
144 127.0 28.0
145 2.0 70.0
146 116.0 37.0
147 54.0 117.0
148 20.0 14.0
149 32.0 98.0
150 11.0 118.0
151 55.0 81.0
152 23.0 28.0
153 118.0 64.0
154 80.0 25.0
155 31.0 96.0
156 63.0 58.0
157 59.0 106.0
158 16.0 16.0
159 70.0 51.0
160 90.0 84.0
161 5.0 98.0
162 108.0 90.0
163 6.0 8.0
164 63.0 76.0
165 85.0 106.0
166 15.0 84.0
167 6.0 81.0
168 20.0 80.0
169 126.0 52.0
170 122.0 45.0
171 94.0 118.0
172 95.0 19.0
173 15.0 38.0
174 51.0 3.0
175 121.0 1.0
176 54.0 103.0
177 19.0 81.0
178 53.0 113.0
179 93.0 103.0
180 95.0 76.0
181 115.0 88.0
182 55.0 12.0
183 26.0 95.0
184 81.0 31.0
185 112.0 46.0
186 35.0 107.0
187 89.0 87.0
188 34.0 93.0
189 116.0 25.0
190 85.0 74.0
191 122.0 123.0
192 63.0 53.0
193 119.0 106.0
194 19.0 37.0
195 108.0 39.0
196 111.0 120.0
197 58.0 50.0
198 57.0 30.0
199 23.0 50.0
200 80.0 77.0
201 24.0 118.0
202 96.0 15.0
203 111.0 31.0
204 8.0 76.0
205 82.0 123.0
206 92.0 100.0
207 15.0 72.0
208 100.0 58.0
209 41.0 36.0
210 97.0 13.0
211 40.0 80.0
212 90.0 29.0
213 24.0 102.0
214 73.0 31.0
215 61.0 11.0
216 118.0 63.0
217 10.0 2.0
218 8.0 124.0
219 108.0 126.0
220 46.0 53.0
221 56.0 33.0
222 85.0 69.0
223 87.0 39.0
224 49.0 3.0
225 54.0 118.0
226 93.0 100.0
227 122.0 26.0
228 49.0 21.0
229 126.0 106.0
230 69.0 118.0
231 118.0 111.0
232 36.0 69.0
233 56.0 17.0
234 19.0 71.0
235 45.0 35.0
236 14.0 93.0
237 104.0 60.0
238 120.0 1.0
239 103.0 15.0
240 23.0 114.0
START_DEPOT_SECTION
1
2
3
4
5
6
7
8
9
10
11
12
13
14
15
16
17
18
19
20
21
22
23
24
25
26
27
28
29
30
-1
END_DEPOT_SECTION
31
32
33
34
35
36
37
38
39
40
41
42
43
44
45
46
47
48
49
50
51
52
53
54
55
56
57
58
59
60
-1
EOF
